r = [
0,203,376,164,71,349,293,300,306,150,278,327,67,31,300,322,10,317,276,295,337,146,206,148,153,316,0
];
p = [
0,18,14,15,8,29,18,25,14,17,7,22,16,3,29,7,18,28,22,28,7,22,27,14,21,11,0
];
e = [
0,10,11,19,3,11,14,18,13,8,13,14,8,13,11,7,7,2,12,1,13,13,2,12,14,9,0
];
d = [
0,242,390,181,164,378,311,429,413,217,343,425,83,66,339,329,103,464,378,439,344,168,314,173,273,327,478
];
d_bar = [
0,251,397,189,168,393,320,442,420,226,347,436,91,68,354,333,112,478,389,453,348,179,328,180,284,333,478
];
w = [
0,1.111111111,1.571428571,2.375,0.75,0.733333333,1.555555556,1.384615385,1.857142857,0.888888889,3.25,1.272727273,1,6.5,0.733333333,1.75,0.777777778,0.142857143,1.090909091,0.071428571,3.25,1.181818182,0.142857143,1.714285714,1.272727273,1.5,0
];
